data;
set K:= K1 K2 K3 K4 K5 K6 K7 K8 K9 K10 K11 K12 K13 K14 K15 ;

set F:= F1 F2 F3 ;

set Q:= Q1 Q2 ;

param T:= 45;
param V: 
	K1  K2  K3  K4  K5  K6  K7  K8  K9  K10 K11 K12 K13 K14 K15 :=
Q1	1   1   1   1   1   1   1   1   1   0   0   0   0   0   0   
Q2	0   0   0   0   0   0   0   0   0   1   1   1   1   1   1   
; # if resorce k is of type q

param TF:= 
K1 6
K2 6
K3 6
K4 6
K5 6
K6 6
K7 6
K8 6
K9 6
K10 12
K11 12
K12 12
K13 12
K14 12
K15 12
; # number of continuous time slots resource can fly

param TR:= 
K1 2
K2 2
K3 2
K4 2
K5 2
K6 2
K7 2
K8 2
K9 2
K10 4
K11 4
K12 4
K13 4
K14 4
K15 4
; #  number of continuous time slots resource k needs to rest between flights

param P:= 
K1 36
K2 36
K3 36
K4 36
K5 36
K6 36
K7 36
K8 36
K9 36
K10 36
K11 36
K12 36
K13 36
K14 36
K15 36
; #  number of continuous time slots a pilot can be present including rest times for resource k 

param N:= 
K1 4
K2 4
K3 4
K4 4
K5 4
K6 4
K7 4
K8 4
K9 4
K10 2
K11 2
K12 2
K13 2
K14 2
K15 2
; # max number of flights resource k can fly in the total time period

param A: 
	K1  K2  K3  K4  K5  K6  K7  K8  K9  K10 K11 K12 K13 K14 K15 :=
1	1   1   1   1   1   1   1   1   1   1   1   1   1   1   1   
2	1   1   1   1   1   1   1   1   1   1   1   1   1   1   1   
3	1   1   1   1   1   1   1   1   1   1   1   1   1   1   1   
4	1   1   1   1   1   1   1   1   1   1   1   1   1   1   1   
5	1   1   1   1   1   1   1   1   1   1   1   1   1   1   1   
6	1   1   1   1   1   1   1   1   1   1   1   1   1   1   1   
7	1   1   1   1   1   1   1   1   1   1   1   1   1   1   1   
8	1   1   1   1   1   1   1   1   1   1   1   1   1   1   1   
9	1   1   1   1   1   1   1   1   1   1   1   1   1   1   1   
10	1   1   1   1   1   1   1   1   1   1   1   1   1   1   1   
11	1   1   1   1   1   1   1   1   1   1   1   1   1   1   1   
12	1   1   1   1   1   1   1   1   1   1   1   1   1   1   1   
13	1   1   1   1   1   1   1   1   1   1   1   1   1   1   1   
14	1   1   1   1   1   1   1   1   1   1   1   1   1   1   1   
15	1   1   1   1   1   1   1   1   1   1   1   1   1   1   1   
16	1   1   1   1   1   1   1   1   1   1   1   1   1   1   1   
17	1   1   1   1   1   1   1   1   1   1   1   1   1   1   1   
18	1   1   1   1   1   1   1   1   1   1   1   1   1   1   1   
19	1   1   1   1   1   1   1   1   1   1   1   1   1   1   1   
20	1   1   1   1   1   1   1   1   1   1   1   1   1   1   1   
21	1   1   1   1   1   1   1   1   1   1   1   1   1   1   1   
22	1   1   1   1   1   1   1   1   1   1   1   1   1   1   1   
23	1   1   1   1   1   1   1   1   1   1   1   1   1   1   1   
24	1   1   1   1   1   1   1   1   1   1   1   1   1   1   1   
25	1   1   1   1   1   1   1   1   1   1   1   1   1   1   1   
26	1   1   1   1   1   1   1   1   1   1   1   1   1   1   1   
27	1   1   1   1   1   1   1   1   1   1   1   1   1   1   1   
28	1   1   1   1   1   1   1   1   1   1   1   1   1   1   1   
29	1   1   1   1   1   1   1   1   1   1   1   1   1   1   1   
30	1   1   1   1   1   1   1   1   1   1   1   1   1   1   1   
31	1   1   1   1   1   1   1   1   1   1   1   1   1   1   1   
32	1   1   1   1   1   1   1   1   1   1   1   1   1   1   1   
33	1   1   1   1   1   1   1   1   1   1   1   1   1   1   1   
34	1   1   1   1   1   1   1   1   1   1   1   1   1   1   1   
35	1   1   1   1   1   1   1   1   1   1   1   1   1   1   1   
36	1   1   1   1   1   1   1   1   1   1   1   1   1   1   1   
37	1   1   1   1   1   1   1   1   1   1   1   1   1   1   1   
38	1   1   1   1   1   1   1   1   1   1   1   1   1   1   1   
39	1   1   1   1   1   1   1   1   1   1   1   1   1   1   1   
40	1   1   1   1   1   1   1   1   1   1   1   1   1   1   1   
41	1   1   1   1   1   1   1   1   1   1   1   1   1   1   1   
42	1   1   1   1   1   1   1   1   1   1   1   1   1   1   1   
43	1   1   1   1   1   1   1   1   1   1   1   1   1   1   1   
44	1   1   1   1   1   1   1   1   1   1   1   1   1   1   1   
45	1   1   1   1   1   1   1   1   1   1   1   1   1   1   1   
; # availability of resorce k in time slot t

param B: 
	F1  F2  F3  :=
Q1	0   0   0   
Q2	0   0   0   
; # if front f requires resources of type q

param U: 
	F1  F2  F3  :=
K1	0   0   0   
K2	0   0   0   
K3	0   0   0   
K4	0   0   0   
K5	0   0   0   
K6	0   0   0   
K7	0   0   0   
K8	0   0   0   
K9	0   0   0   
K10	1   1   1   
K11	2   2   2   
K12	2   2   2   
K13	2   2   2   
K14	0   0   0   
K15	1   1   1   
; # transit time of resource

param C:= 
K1 900
K2 900
K3 900
K4 900
K5 900
K6 1500
K7 1500
K8 4500
K9 4500
K10 5500
K11 5500
K12 5500
K13 5500
K14 5500
K15 5500
; #  water capacity of resource k

param S:= 
F1 9
F2 10
F3 9
; # max number of resources that can fly at front f in the same time slot

param D:= 

[*,*,F1 ]:  K1    K2    K3    K4    K5    K6    K7    K8    K9    K10   K11   K12   K13   K14   K15   :=
1           1.65  1.65  1.65  1.65  1.65  1.65  1.65  1.32  1.32  0.99  0.99  0.99  0.99  0.99  0.99  
2           1.65  1.65  1.65  1.65  1.65  1.65  1.65  1.32  1.32  0.99  0.99  0.99  0.99  0.99  0.99  
3           1.65  1.65  1.65  1.65  1.65  1.65  1.65  1.32  1.32  0.99  0.99  0.99  0.99  0.99  0.99  
4           1.65  1.65  1.65  1.65  1.65  1.65  1.65  1.32  1.32  0.99  0.99  0.99  0.99  0.99  0.99  
5           1.65  1.65  1.65  1.65  1.65  1.65  1.65  1.32  1.32  0.99  0.99  0.99  0.99  0.99  0.99  
6           1.65  1.65  1.65  1.65  1.65  1.65  1.65  1.32  1.32  0.99  0.99  0.99  0.99  0.99  0.99  
7           1.65  1.65  1.65  1.65  1.65  1.65  1.65  1.32  1.32  0.99  0.99  0.99  0.99  0.99  0.99  
8           1.65  1.65  1.65  1.65  1.65  1.65  1.65  1.32  1.32  0.99  0.99  0.99  0.99  0.99  0.99  
9           1.65  1.65  1.65  1.65  1.65  1.65  1.65  1.32  1.32  0.99  0.99  0.99  0.99  0.99  0.99  
10          1.65  1.65  1.65  1.65  1.65  1.65  1.65  1.32  1.32  0.99  0.99  0.99  0.99  0.99  0.99  
11          1.65  1.65  1.65  1.65  1.65  1.65  1.65  1.32  1.32  0.99  0.99  0.99  0.99  0.99  0.99  
12          1.65  1.65  1.65  1.65  1.65  1.65  1.65  1.32  1.32  0.99  0.99  0.99  0.99  0.99  0.99  
13          1.65  1.65  1.65  1.65  1.65  1.65  1.65  1.32  1.32  0.99  0.99  0.99  0.99  0.99  0.99  
14          1.65  1.65  1.65  1.65  1.65  1.65  1.65  1.32  1.32  0.99  0.99  0.99  0.99  0.99  0.99  
15          1.65  1.65  1.65  1.65  1.65  1.65  1.65  1.32  1.32  0.99  0.99  0.99  0.99  0.99  0.99  
16          1.65  1.65  1.65  1.65  1.65  1.65  1.65  1.32  1.32  0.99  0.99  0.99  0.99  0.99  0.99  
17          1.65  1.65  1.65  1.65  1.65  1.65  1.65  1.32  1.32  0.99  0.99  0.99  0.99  0.99  0.99  
18          1.65  1.65  1.65  1.65  1.65  1.65  1.65  1.32  1.32  0.99  0.99  0.99  0.99  0.99  0.99  
19          1.65  1.65  1.65  1.65  1.65  1.65  1.65  1.32  1.32  0.99  0.99  0.99  0.99  0.99  0.99  
20          1.65  1.65  1.65  1.65  1.65  1.65  1.65  1.32  1.32  0.99  0.99  0.99  0.99  0.99  0.99  
21          1.65  1.65  1.65  1.65  1.65  1.65  1.65  1.32  1.32  0.99  0.99  0.99  0.99  0.99  0.99  
22          1.65  1.65  1.65  1.65  1.65  1.65  1.65  1.32  1.32  0.99  0.99  0.99  0.99  0.99  0.99  
23          1.65  1.65  1.65  1.65  1.65  1.65  1.65  1.32  1.32  0.99  0.99  0.99  0.99  0.99  0.99  
24          1.65  1.65  1.65  1.65  1.65  1.65  1.65  1.32  1.32  0.99  0.99  0.99  0.99  0.99  0.99  
25          1.57  1.57  1.57  1.57  1.57  1.57  1.57  1.25  1.25  0.94  0.94  0.94  0.94  0.94  0.94  
26          1.57  1.57  1.57  1.57  1.57  1.57  1.57  1.25  1.25  0.94  0.94  0.94  0.94  0.94  0.94  
27          1.57  1.57  1.57  1.57  1.57  1.57  1.57  1.25  1.25  0.94  0.94  0.94  0.94  0.94  0.94  
28          1.57  1.57  1.57  1.57  1.57  1.57  1.57  1.25  1.25  0.94  0.94  0.94  0.94  0.94  0.94  
29          1.57  1.57  1.57  1.57  1.57  1.57  1.57  1.25  1.25  0.94  0.94  0.94  0.94  0.94  0.94  
30          1.57  1.57  1.57  1.57  1.57  1.57  1.57  1.25  1.25  0.94  0.94  0.94  0.94  0.94  0.94  
31          1.57  1.57  1.57  1.57  1.57  1.57  1.57  1.25  1.25  0.94  0.94  0.94  0.94  0.94  0.94  
32          1.57  1.57  1.57  1.57  1.57  1.57  1.57  1.25  1.25  0.94  0.94  0.94  0.94  0.94  0.94  
33          1.57  1.57  1.57  1.57  1.57  1.57  1.57  1.25  1.25  0.94  0.94  0.94  0.94  0.94  0.94  
34          1.65  1.65  1.65  1.65  1.65  1.65  1.65  1.32  1.32  0.99  0.99  0.99  0.99  0.99  0.99  
35          1.65  1.65  1.65  1.65  1.65  1.65  1.65  1.32  1.32  0.99  0.99  0.99  0.99  0.99  0.99  
36          1.65  1.65  1.65  1.65  1.65  1.65  1.65  1.32  1.32  0.99  0.99  0.99  0.99  0.99  0.99  
37          1.65  1.65  1.65  1.65  1.65  1.65  1.65  1.32  1.32  0.99  0.99  0.99  0.99  0.99  0.99  
38          1.65  1.65  1.65  1.65  1.65  1.65  1.65  1.32  1.32  0.99  0.99  0.99  0.99  0.99  0.99  
39          1.65  1.65  1.65  1.65  1.65  1.65  1.65  1.32  1.32  0.99  0.99  0.99  0.99  0.99  0.99  
40          1.65  1.65  1.65  1.65  1.65  1.65  1.65  1.32  1.32  0.99  0.99  0.99  0.99  0.99  0.99  
41          1.65  1.65  1.65  1.65  1.65  1.65  1.65  1.32  1.32  0.99  0.99  0.99  0.99  0.99  0.99  
42          1.65  1.65  1.65  1.65  1.65  1.65  1.65  1.32  1.32  0.99  0.99  0.99  0.99  0.99  0.99  
43          1.65  1.65  1.65  1.65  1.65  1.65  1.65  1.32  1.32  0.99  0.99  0.99  0.99  0.99  0.99  
44          1.65  1.65  1.65  1.65  1.65  1.65  1.65  1.32  1.32  0.99  0.99  0.99  0.99  0.99  0.99  
45          1.65  1.65  1.65  1.65  1.65  1.65  1.65  1.32  1.32  0.99  0.99  0.99  0.99  0.99  0.99  

[*,*,F2 ]:  K1    K2    K3    K4    K5    K6    K7    K8    K9    K10   K11   K12   K13   K14   K15   :=
1           1.34  1.34  1.34  1.34  1.34  1.34  1.34  1.06  1.06  0.80  0.80  0.80  0.80  0.80  0.80  
2           1.34  1.34  1.34  1.34  1.34  1.34  1.34  1.06  1.06  0.80  0.80  0.80  0.80  0.80  0.80  
3           1.34  1.34  1.34  1.34  1.34  1.34  1.34  1.06  1.06  0.80  0.80  0.80  0.80  0.80  0.80  
4           1.34  1.34  1.34  1.34  1.34  1.34  1.34  1.06  1.06  0.80  0.80  0.80  0.80  0.80  0.80  
5           1.34  1.34  1.34  1.34  1.34  1.34  1.34  1.06  1.06  0.80  0.80  0.80  0.80  0.80  0.80  
6           1.34  1.34  1.34  1.34  1.34  1.34  1.34  1.06  1.06  0.80  0.80  0.80  0.80  0.80  0.80  
7           1.34  1.34  1.34  1.34  1.34  1.34  1.34  1.06  1.06  0.80  0.80  0.80  0.80  0.80  0.80  
8           1.34  1.34  1.34  1.34  1.34  1.34  1.34  1.06  1.06  0.80  0.80  0.80  0.80  0.80  0.80  
9           1.34  1.34  1.34  1.34  1.34  1.34  1.34  1.06  1.06  0.80  0.80  0.80  0.80  0.80  0.80  
10          1.34  1.34  1.34  1.34  1.34  1.34  1.34  1.06  1.06  0.80  0.80  0.80  0.80  0.80  0.80  
11          1.34  1.34  1.34  1.34  1.34  1.34  1.34  1.06  1.06  0.80  0.80  0.80  0.80  0.80  0.80  
12          1.34  1.34  1.34  1.34  1.34  1.34  1.34  1.06  1.06  0.80  0.80  0.80  0.80  0.80  0.80  
13          1.34  1.34  1.34  1.34  1.34  1.34  1.34  1.06  1.06  0.80  0.80  0.80  0.80  0.80  0.80  
14          1.34  1.34  1.34  1.34  1.34  1.34  1.34  1.06  1.06  0.80  0.80  0.80  0.80  0.80  0.80  
15          1.34  1.34  1.34  1.34  1.34  1.34  1.34  1.06  1.06  0.80  0.80  0.80  0.80  0.80  0.80  
16          1.34  1.34  1.34  1.34  1.34  1.34  1.34  1.06  1.06  0.80  0.80  0.80  0.80  0.80  0.80  
17          1.34  1.34  1.34  1.34  1.34  1.34  1.34  1.06  1.06  0.80  0.80  0.80  0.80  0.80  0.80  
18          1.34  1.34  1.34  1.34  1.34  1.34  1.34  1.06  1.06  0.80  0.80  0.80  0.80  0.80  0.80  
19          1.34  1.34  1.34  1.34  1.34  1.34  1.34  1.06  1.06  0.80  0.80  0.80  0.80  0.80  0.80  
20          1.34  1.34  1.34  1.34  1.34  1.34  1.34  1.06  1.06  0.80  0.80  0.80  0.80  0.80  0.80  
21          1.34  1.34  1.34  1.34  1.34  1.34  1.34  1.06  1.06  0.80  0.80  0.80  0.80  0.80  0.80  
22          1.34  1.34  1.34  1.34  1.34  1.34  1.34  1.06  1.06  0.80  0.80  0.80  0.80  0.80  0.80  
23          1.34  1.34  1.34  1.34  1.34  1.34  1.34  1.06  1.06  0.80  0.80  0.80  0.80  0.80  0.80  
24          1.34  1.34  1.34  1.34  1.34  1.34  1.34  1.06  1.06  0.80  0.80  0.80  0.80  0.80  0.80  
25          1.27  1.27  1.27  1.27  1.27  1.27  1.27  1.01  1.01  0.76  0.76  0.76  0.76  0.76  0.76  
26          1.27  1.27  1.27  1.27  1.27  1.27  1.27  1.01  1.01  0.76  0.76  0.76  0.76  0.76  0.76  
27          1.27  1.27  1.27  1.27  1.27  1.27  1.27  1.01  1.01  0.76  0.76  0.76  0.76  0.76  0.76  
28          1.27  1.27  1.27  1.27  1.27  1.27  1.27  1.01  1.01  0.76  0.76  0.76  0.76  0.76  0.76  
29          1.27  1.27  1.27  1.27  1.27  1.27  1.27  1.01  1.01  0.76  0.76  0.76  0.76  0.76  0.76  
30          1.27  1.27  1.27  1.27  1.27  1.27  1.27  1.01  1.01  0.76  0.76  0.76  0.76  0.76  0.76  
31          1.27  1.27  1.27  1.27  1.27  1.27  1.27  1.01  1.01  0.76  0.76  0.76  0.76  0.76  0.76  
32          1.27  1.27  1.27  1.27  1.27  1.27  1.27  1.01  1.01  0.76  0.76  0.76  0.76  0.76  0.76  
33          1.27  1.27  1.27  1.27  1.27  1.27  1.27  1.01  1.01  0.76  0.76  0.76  0.76  0.76  0.76  
34          1.34  1.34  1.34  1.34  1.34  1.34  1.34  1.06  1.06  0.80  0.80  0.80  0.80  0.80  0.80  
35          1.34  1.34  1.34  1.34  1.34  1.34  1.34  1.06  1.06  0.80  0.80  0.80  0.80  0.80  0.80  
36          1.34  1.34  1.34  1.34  1.34  1.34  1.34  1.06  1.06  0.80  0.80  0.80  0.80  0.80  0.80  
37          1.34  1.34  1.34  1.34  1.34  1.34  1.34  1.06  1.06  0.80  0.80  0.80  0.80  0.80  0.80  
38          1.34  1.34  1.34  1.34  1.34  1.34  1.34  1.06  1.06  0.80  0.80  0.80  0.80  0.80  0.80  
39          1.34  1.34  1.34  1.34  1.34  1.34  1.34  1.06  1.06  0.80  0.80  0.80  0.80  0.80  0.80  
40          1.34  1.34  1.34  1.34  1.34  1.34  1.34  1.06  1.06  0.80  0.80  0.80  0.80  0.80  0.80  
41          1.34  1.34  1.34  1.34  1.34  1.34  1.34  1.06  1.06  0.80  0.80  0.80  0.80  0.80  0.80  
42          1.34  1.34  1.34  1.34  1.34  1.34  1.34  1.06  1.06  0.80  0.80  0.80  0.80  0.80  0.80  
43          1.34  1.34  1.34  1.34  1.34  1.34  1.34  1.06  1.06  0.80  0.80  0.80  0.80  0.80  0.80  
44          1.34  1.34  1.34  1.34  1.34  1.34  1.34  1.06  1.06  0.80  0.80  0.80  0.80  0.80  0.80  
45          1.34  1.34  1.34  1.34  1.34  1.34  1.34  1.06  1.06  0.80  0.80  0.80  0.80  0.80  0.80  

[*,*,F3 ]:  K1    K2    K3    K4    K5    K6    K7    K8    K9    K10   K11   K12   K13   K14   K15   :=
1           1.97  1.97  1.97  1.97  1.97  1.97  1.97  1.57  1.57  1.18  1.18  1.18  1.18  1.18  1.18  
2           1.97  1.97  1.97  1.97  1.97  1.97  1.97  1.57  1.57  1.18  1.18  1.18  1.18  1.18  1.18  
3           1.97  1.97  1.97  1.97  1.97  1.97  1.97  1.57  1.57  1.18  1.18  1.18  1.18  1.18  1.18  
4           1.97  1.97  1.97  1.97  1.97  1.97  1.97  1.57  1.57  1.18  1.18  1.18  1.18  1.18  1.18  
5           1.97  1.97  1.97  1.97  1.97  1.97  1.97  1.57  1.57  1.18  1.18  1.18  1.18  1.18  1.18  
6           1.97  1.97  1.97  1.97  1.97  1.97  1.97  1.57  1.57  1.18  1.18  1.18  1.18  1.18  1.18  
7           1.97  1.97  1.97  1.97  1.97  1.97  1.97  1.57  1.57  1.18  1.18  1.18  1.18  1.18  1.18  
8           1.97  1.97  1.97  1.97  1.97  1.97  1.97  1.57  1.57  1.18  1.18  1.18  1.18  1.18  1.18  
9           1.97  1.97  1.97  1.97  1.97  1.97  1.97  1.57  1.57  1.18  1.18  1.18  1.18  1.18  1.18  
10          1.97  1.97  1.97  1.97  1.97  1.97  1.97  1.57  1.57  1.18  1.18  1.18  1.18  1.18  1.18  
11          1.97  1.97  1.97  1.97  1.97  1.97  1.97  1.57  1.57  1.18  1.18  1.18  1.18  1.18  1.18  
12          1.97  1.97  1.97  1.97  1.97  1.97  1.97  1.57  1.57  1.18  1.18  1.18  1.18  1.18  1.18  
13          1.97  1.97  1.97  1.97  1.97  1.97  1.97  1.57  1.57  1.18  1.18  1.18  1.18  1.18  1.18  
14          1.97  1.97  1.97  1.97  1.97  1.97  1.97  1.57  1.57  1.18  1.18  1.18  1.18  1.18  1.18  
15          1.97  1.97  1.97  1.97  1.97  1.97  1.97  1.57  1.57  1.18  1.18  1.18  1.18  1.18  1.18  
16          1.97  1.97  1.97  1.97  1.97  1.97  1.97  1.57  1.57  1.18  1.18  1.18  1.18  1.18  1.18  
17          1.97  1.97  1.97  1.97  1.97  1.97  1.97  1.57  1.57  1.18  1.18  1.18  1.18  1.18  1.18  
18          1.97  1.97  1.97  1.97  1.97  1.97  1.97  1.57  1.57  1.18  1.18  1.18  1.18  1.18  1.18  
19          1.97  1.97  1.97  1.97  1.97  1.97  1.97  1.57  1.57  1.18  1.18  1.18  1.18  1.18  1.18  
20          1.97  1.97  1.97  1.97  1.97  1.97  1.97  1.57  1.57  1.18  1.18  1.18  1.18  1.18  1.18  
21          1.97  1.97  1.97  1.97  1.97  1.97  1.97  1.57  1.57  1.18  1.18  1.18  1.18  1.18  1.18  
22          1.97  1.97  1.97  1.97  1.97  1.97  1.97  1.57  1.57  1.18  1.18  1.18  1.18  1.18  1.18  
23          1.97  1.97  1.97  1.97  1.97  1.97  1.97  1.57  1.57  1.18  1.18  1.18  1.18  1.18  1.18  
24          1.97  1.97  1.97  1.97  1.97  1.97  1.97  1.57  1.57  1.18  1.18  1.18  1.18  1.18  1.18  
25          1.87  1.87  1.87  1.87  1.87  1.87  1.87  1.49  1.49  1.12  1.12  1.12  1.12  1.12  1.12  
26          1.87  1.87  1.87  1.87  1.87  1.87  1.87  1.49  1.49  1.12  1.12  1.12  1.12  1.12  1.12  
27          1.87  1.87  1.87  1.87  1.87  1.87  1.87  1.49  1.49  1.12  1.12  1.12  1.12  1.12  1.12  
28          1.87  1.87  1.87  1.87  1.87  1.87  1.87  1.49  1.49  1.12  1.12  1.12  1.12  1.12  1.12  
29          1.87  1.87  1.87  1.87  1.87  1.87  1.87  1.49  1.49  1.12  1.12  1.12  1.12  1.12  1.12  
30          1.87  1.87  1.87  1.87  1.87  1.87  1.87  1.49  1.49  1.12  1.12  1.12  1.12  1.12  1.12  
31          1.87  1.87  1.87  1.87  1.87  1.87  1.87  1.49  1.49  1.12  1.12  1.12  1.12  1.12  1.12  
32          1.87  1.87  1.87  1.87  1.87  1.87  1.87  1.49  1.49  1.12  1.12  1.12  1.12  1.12  1.12  
33          1.87  1.87  1.87  1.87  1.87  1.87  1.87  1.49  1.49  1.12  1.12  1.12  1.12  1.12  1.12  
34          1.97  1.97  1.97  1.97  1.97  1.97  1.97  1.57  1.57  1.18  1.18  1.18  1.18  1.18  1.18  
35          1.97  1.97  1.97  1.97  1.97  1.97  1.97  1.57  1.57  1.18  1.18  1.18  1.18  1.18  1.18  
36          1.97  1.97  1.97  1.97  1.97  1.97  1.97  1.57  1.57  1.18  1.18  1.18  1.18  1.18  1.18  
37          1.97  1.97  1.97  1.97  1.97  1.97  1.97  1.57  1.57  1.18  1.18  1.18  1.18  1.18  1.18  
38          1.97  1.97  1.97  1.97  1.97  1.97  1.97  1.57  1.57  1.18  1.18  1.18  1.18  1.18  1.18  
39          1.97  1.97  1.97  1.97  1.97  1.97  1.97  1.57  1.57  1.18  1.18  1.18  1.18  1.18  1.18  
40          1.97  1.97  1.97  1.97  1.97  1.97  1.97  1.57  1.57  1.18  1.18  1.18  1.18  1.18  1.18  
41          1.97  1.97  1.97  1.97  1.97  1.97  1.97  1.57  1.57  1.18  1.18  1.18  1.18  1.18  1.18  
42          1.97  1.97  1.97  1.97  1.97  1.97  1.97  1.57  1.57  1.18  1.18  1.18  1.18  1.18  1.18  
43          1.97  1.97  1.97  1.97  1.97  1.97  1.97  1.57  1.57  1.18  1.18  1.18  1.18  1.18  1.18  
44          1.97  1.97  1.97  1.97  1.97  1.97  1.97  1.57  1.57  1.18  1.18  1.18  1.18  1.18  1.18  
45          1.97  1.97  1.97  1.97  1.97  1.97  1.97  1.57  1.57  1.18  1.18  1.18  1.18  1.18  1.18  
; # downloads resource k can do at front f in time t if intermediate time slot

param E:= 

[*,*,F1 ]:  K1    K2    K3    K4    K5    K6    K7    K8    K9    K10   K11   K12   K13   K14   K15   :=
1           0.05  0.33  0.21  0.48  0.21  0.46  0.56  0.03  0.07  0.18  0.23  0.14  0.07  0.44  0.00  
2           0.05  0.33  0.21  0.48  0.21  0.46  0.56  0.03  0.07  0.18  0.23  0.14  0.07  0.44  0.00  
3           0.05  0.33  0.21  0.48  0.21  0.46  0.56  0.03  0.07  0.18  0.23  0.14  0.07  0.44  0.00  
4           0.05  0.33  0.21  0.48  0.21  0.46  0.56  0.03  0.07  0.18  0.23  0.14  0.07  0.44  0.00  
5           0.05  0.33  0.21  0.48  0.21  0.46  0.56  0.03  0.07  0.18  0.23  0.14  0.07  0.44  0.00  
6           0.05  0.33  0.21  0.48  0.21  0.46  0.56  0.03  0.07  0.18  0.23  0.14  0.07  0.44  0.00  
7           0.05  0.33  0.21  0.48  0.21  0.46  0.56  0.03  0.07  0.18  0.23  0.14  0.07  0.44  0.00  
8           0.05  0.33  0.21  0.48  0.21  0.46  0.56  0.03  0.07  0.18  0.23  0.14  0.07  0.44  0.00  
9           0.05  0.33  0.21  0.48  0.21  0.46  0.56  0.03  0.07  0.18  0.23  0.14  0.07  0.44  0.00  
10          0.05  0.33  0.21  0.48  0.21  0.46  0.56  0.03  0.07  0.18  0.23  0.14  0.07  0.44  0.00  
11          0.05  0.33  0.21  0.48  0.21  0.46  0.56  0.03  0.07  0.18  0.23  0.14  0.07  0.44  0.00  
12          0.05  0.33  0.21  0.48  0.21  0.46  0.56  0.03  0.07  0.18  0.23  0.14  0.07  0.44  0.00  
13          0.05  0.33  0.21  0.48  0.21  0.46  0.56  0.03  0.07  0.18  0.23  0.14  0.07  0.44  0.00  
14          0.05  0.33  0.21  0.48  0.21  0.46  0.56  0.03  0.07  0.18  0.23  0.14  0.07  0.44  0.00  
15          0.05  0.33  0.21  0.48  0.21  0.46  0.56  0.03  0.07  0.18  0.23  0.14  0.07  0.44  0.00  
16          0.05  0.33  0.21  0.48  0.21  0.46  0.56  0.03  0.07  0.18  0.23  0.14  0.07  0.44  0.00  
17          0.05  0.33  0.21  0.48  0.21  0.46  0.56  0.03  0.07  0.18  0.23  0.14  0.07  0.44  0.00  
18          0.05  0.33  0.21  0.48  0.21  0.46  0.56  0.03  0.07  0.18  0.23  0.14  0.07  0.44  0.00  
19          0.05  0.33  0.21  0.48  0.21  0.46  0.56  0.03  0.07  0.18  0.23  0.14  0.07  0.44  0.00  
20          0.05  0.33  0.21  0.48  0.21  0.46  0.56  0.03  0.07  0.18  0.23  0.14  0.07  0.44  0.00  
21          0.05  0.33  0.21  0.48  0.21  0.46  0.56  0.03  0.07  0.18  0.23  0.14  0.07  0.44  0.00  
22          0.05  0.33  0.21  0.48  0.21  0.46  0.56  0.03  0.07  0.18  0.23  0.14  0.07  0.44  0.00  
23          0.05  0.33  0.21  0.48  0.21  0.46  0.56  0.03  0.07  0.18  0.23  0.14  0.07  0.44  0.00  
24          0.05  0.33  0.21  0.48  0.21  0.46  0.56  0.03  0.07  0.18  0.23  0.14  0.07  0.44  0.00  
25          0.05  0.31  0.20  0.46  0.20  0.44  0.53  0.03  0.06  0.17  0.22  0.13  0.07  0.41  0.00  
26          0.05  0.31  0.20  0.46  0.20  0.44  0.53  0.03  0.06  0.17  0.22  0.13  0.07  0.41  0.00  
27          0.05  0.31  0.20  0.46  0.20  0.44  0.53  0.03  0.06  0.17  0.22  0.13  0.07  0.41  0.00  
28          0.05  0.31  0.20  0.46  0.20  0.44  0.53  0.03  0.06  0.17  0.22  0.13  0.07  0.41  0.00  
29          0.05  0.31  0.20  0.46  0.20  0.44  0.53  0.03  0.06  0.17  0.22  0.13  0.07  0.41  0.00  
30          0.05  0.31  0.20  0.46  0.20  0.44  0.53  0.03  0.06  0.17  0.22  0.13  0.07  0.41  0.00  
31          0.05  0.31  0.20  0.46  0.20  0.44  0.53  0.03  0.06  0.17  0.22  0.13  0.07  0.41  0.00  
32          0.05  0.31  0.20  0.46  0.20  0.44  0.53  0.03  0.06  0.17  0.22  0.13  0.07  0.41  0.00  
33          0.05  0.31  0.20  0.46  0.20  0.44  0.53  0.03  0.06  0.17  0.22  0.13  0.07  0.41  0.00  
34          0.05  0.33  0.21  0.48  0.21  0.46  0.56  0.03  0.07  0.18  0.23  0.14  0.07  0.44  0.00  
35          0.05  0.33  0.21  0.48  0.21  0.46  0.56  0.03  0.07  0.18  0.23  0.14  0.07  0.44  0.00  
36          0.05  0.33  0.21  0.48  0.21  0.46  0.56  0.03  0.07  0.18  0.23  0.14  0.07  0.44  0.00  
37          0.05  0.33  0.21  0.48  0.21  0.46  0.56  0.03  0.07  0.18  0.23  0.14  0.07  0.44  0.00  
38          0.05  0.33  0.21  0.48  0.21  0.46  0.56  0.03  0.07  0.18  0.23  0.14  0.07  0.44  0.00  
39          0.05  0.33  0.21  0.48  0.21  0.46  0.56  0.03  0.07  0.18  0.23  0.14  0.07  0.44  0.00  
40          0.05  0.33  0.21  0.48  0.21  0.46  0.56  0.03  0.07  0.18  0.23  0.14  0.07  0.44  0.00  
41          0.05  0.33  0.21  0.48  0.21  0.46  0.56  0.03  0.07  0.18  0.23  0.14  0.07  0.44  0.00  
42          0.05  0.33  0.21  0.48  0.21  0.46  0.56  0.03  0.07  0.18  0.23  0.14  0.07  0.44  0.00  
43          0.05  0.33  0.21  0.48  0.21  0.46  0.56  0.03  0.07  0.18  0.23  0.14  0.07  0.44  0.00  
44          0.05  0.33  0.21  0.48  0.21  0.46  0.56  0.03  0.07  0.18  0.23  0.14  0.07  0.44  0.00  
45          0.05  0.33  0.21  0.48  0.21  0.46  0.56  0.03  0.07  0.18  0.23  0.14  0.07  0.44  0.00  

[*,*,F2 ]:  K1    K2    K3    K4    K5    K6    K7    K8    K9    K10   K11   K12   K13   K14   K15   :=
1           0.07  0.27  0.27  0.43  0.20  0.41  0.40  0.03  0.01  0.12  0.18  0.06  0.09  0.34  0.06  
2           0.07  0.27  0.27  0.43  0.20  0.41  0.40  0.03  0.01  0.12  0.18  0.06  0.09  0.34  0.06  
3           0.07  0.27  0.27  0.43  0.20  0.41  0.40  0.03  0.01  0.12  0.18  0.06  0.09  0.34  0.06  
4           0.07  0.27  0.27  0.43  0.20  0.41  0.40  0.03  0.01  0.12  0.18  0.06  0.09  0.34  0.06  
5           0.07  0.27  0.27  0.43  0.20  0.41  0.40  0.03  0.01  0.12  0.18  0.06  0.09  0.34  0.06  
6           0.07  0.27  0.27  0.43  0.20  0.41  0.40  0.03  0.01  0.12  0.18  0.06  0.09  0.34  0.06  
7           0.07  0.27  0.27  0.43  0.20  0.41  0.40  0.03  0.01  0.12  0.18  0.06  0.09  0.34  0.06  
8           0.07  0.27  0.27  0.43  0.20  0.41  0.40  0.03  0.01  0.12  0.18  0.06  0.09  0.34  0.06  
9           0.07  0.27  0.27  0.43  0.20  0.41  0.40  0.03  0.01  0.12  0.18  0.06  0.09  0.34  0.06  
10          0.07  0.27  0.27  0.43  0.20  0.41  0.40  0.03  0.01  0.12  0.18  0.06  0.09  0.34  0.06  
11          0.07  0.27  0.27  0.43  0.20  0.41  0.40  0.03  0.01  0.12  0.18  0.06  0.09  0.34  0.06  
12          0.07  0.27  0.27  0.43  0.20  0.41  0.40  0.03  0.01  0.12  0.18  0.06  0.09  0.34  0.06  
13          0.07  0.27  0.27  0.43  0.20  0.41  0.40  0.03  0.01  0.12  0.18  0.06  0.09  0.34  0.06  
14          0.07  0.27  0.27  0.43  0.20  0.41  0.40  0.03  0.01  0.12  0.18  0.06  0.09  0.34  0.06  
15          0.07  0.27  0.27  0.43  0.20  0.41  0.40  0.03  0.01  0.12  0.18  0.06  0.09  0.34  0.06  
16          0.07  0.27  0.27  0.43  0.20  0.41  0.40  0.03  0.01  0.12  0.18  0.06  0.09  0.34  0.06  
17          0.07  0.27  0.27  0.43  0.20  0.41  0.40  0.03  0.01  0.12  0.18  0.06  0.09  0.34  0.06  
18          0.07  0.27  0.27  0.43  0.20  0.41  0.40  0.03  0.01  0.12  0.18  0.06  0.09  0.34  0.06  
19          0.07  0.27  0.27  0.43  0.20  0.41  0.40  0.03  0.01  0.12  0.18  0.06  0.09  0.34  0.06  
20          0.07  0.27  0.27  0.43  0.20  0.41  0.40  0.03  0.01  0.12  0.18  0.06  0.09  0.34  0.06  
21          0.07  0.27  0.27  0.43  0.20  0.41  0.40  0.03  0.01  0.12  0.18  0.06  0.09  0.34  0.06  
22          0.07  0.27  0.27  0.43  0.20  0.41  0.40  0.03  0.01  0.12  0.18  0.06  0.09  0.34  0.06  
23          0.07  0.27  0.27  0.43  0.20  0.41  0.40  0.03  0.01  0.12  0.18  0.06  0.09  0.34  0.06  
24          0.07  0.27  0.27  0.43  0.20  0.41  0.40  0.03  0.01  0.12  0.18  0.06  0.09  0.34  0.06  
25          0.06  0.25  0.25  0.41  0.19  0.39  0.38  0.03  0.01  0.11  0.17  0.06  0.08  0.33  0.05  
26          0.06  0.25  0.25  0.41  0.19  0.39  0.38  0.03  0.01  0.11  0.17  0.06  0.08  0.33  0.05  
27          0.06  0.25  0.25  0.41  0.19  0.39  0.38  0.03  0.01  0.11  0.17  0.06  0.08  0.33  0.05  
28          0.06  0.25  0.25  0.41  0.19  0.39  0.38  0.03  0.01  0.11  0.17  0.06  0.08  0.33  0.05  
29          0.06  0.25  0.25  0.41  0.19  0.39  0.38  0.03  0.01  0.11  0.17  0.06  0.08  0.33  0.05  
30          0.06  0.25  0.25  0.41  0.19  0.39  0.38  0.03  0.01  0.11  0.17  0.06  0.08  0.33  0.05  
31          0.06  0.25  0.25  0.41  0.19  0.39  0.38  0.03  0.01  0.11  0.17  0.06  0.08  0.33  0.05  
32          0.06  0.25  0.25  0.41  0.19  0.39  0.38  0.03  0.01  0.11  0.17  0.06  0.08  0.33  0.05  
33          0.06  0.25  0.25  0.41  0.19  0.39  0.38  0.03  0.01  0.11  0.17  0.06  0.08  0.33  0.05  
34          0.07  0.27  0.27  0.43  0.20  0.41  0.40  0.03  0.01  0.12  0.18  0.06  0.09  0.34  0.06  
35          0.07  0.27  0.27  0.43  0.20  0.41  0.40  0.03  0.01  0.12  0.18  0.06  0.09  0.34  0.06  
36          0.07  0.27  0.27  0.43  0.20  0.41  0.40  0.03  0.01  0.12  0.18  0.06  0.09  0.34  0.06  
37          0.07  0.27  0.27  0.43  0.20  0.41  0.40  0.03  0.01  0.12  0.18  0.06  0.09  0.34  0.06  
38          0.07  0.27  0.27  0.43  0.20  0.41  0.40  0.03  0.01  0.12  0.18  0.06  0.09  0.34  0.06  
39          0.07  0.27  0.27  0.43  0.20  0.41  0.40  0.03  0.01  0.12  0.18  0.06  0.09  0.34  0.06  
40          0.07  0.27  0.27  0.43  0.20  0.41  0.40  0.03  0.01  0.12  0.18  0.06  0.09  0.34  0.06  
41          0.07  0.27  0.27  0.43  0.20  0.41  0.40  0.03  0.01  0.12  0.18  0.06  0.09  0.34  0.06  
42          0.07  0.27  0.27  0.43  0.20  0.41  0.40  0.03  0.01  0.12  0.18  0.06  0.09  0.34  0.06  
43          0.07  0.27  0.27  0.43  0.20  0.41  0.40  0.03  0.01  0.12  0.18  0.06  0.09  0.34  0.06  
44          0.07  0.27  0.27  0.43  0.20  0.41  0.40  0.03  0.01  0.12  0.18  0.06  0.09  0.34  0.06  
45          0.07  0.27  0.27  0.43  0.20  0.41  0.40  0.03  0.01  0.12  0.18  0.06  0.09  0.34  0.06  

[*,*,F3 ]:  K1    K2    K3    K4    K5    K6    K7    K8    K9    K10   K11   K12   K13   K14   K15   :=
1           0.02  0.35  0.26  0.61  0.16  0.51  0.79  0.09  0.17  0.25  0.32  0.09  0.18  0.63  0.06  
2           0.02  0.35  0.26  0.61  0.16  0.51  0.79  0.09  0.17  0.25  0.32  0.09  0.18  0.63  0.06  
3           0.02  0.35  0.26  0.61  0.16  0.51  0.79  0.09  0.17  0.25  0.32  0.09  0.18  0.63  0.06  
4           0.02  0.35  0.26  0.61  0.16  0.51  0.79  0.09  0.17  0.25  0.32  0.09  0.18  0.63  0.06  
5           0.02  0.35  0.26  0.61  0.16  0.51  0.79  0.09  0.17  0.25  0.32  0.09  0.18  0.63  0.06  
6           0.02  0.35  0.26  0.61  0.16  0.51  0.79  0.09  0.17  0.25  0.32  0.09  0.18  0.63  0.06  
7           0.02  0.35  0.26  0.61  0.16  0.51  0.79  0.09  0.17  0.25  0.32  0.09  0.18  0.63  0.06  
8           0.02  0.35  0.26  0.61  0.16  0.51  0.79  0.09  0.17  0.25  0.32  0.09  0.18  0.63  0.06  
9           0.02  0.35  0.26  0.61  0.16  0.51  0.79  0.09  0.17  0.25  0.32  0.09  0.18  0.63  0.06  
10          0.02  0.35  0.26  0.61  0.16  0.51  0.79  0.09  0.17  0.25  0.32  0.09  0.18  0.63  0.06  
11          0.02  0.35  0.26  0.61  0.16  0.51  0.79  0.09  0.17  0.25  0.32  0.09  0.18  0.63  0.06  
12          0.02  0.35  0.26  0.61  0.16  0.51  0.79  0.09  0.17  0.25  0.32  0.09  0.18  0.63  0.06  
13          0.02  0.35  0.26  0.61  0.16  0.51  0.79  0.09  0.17  0.25  0.32  0.09  0.18  0.63  0.06  
14          0.02  0.35  0.26  0.61  0.16  0.51  0.79  0.09  0.17  0.25  0.32  0.09  0.18  0.63  0.06  
15          0.02  0.35  0.26  0.61  0.16  0.51  0.79  0.09  0.17  0.25  0.32  0.09  0.18  0.63  0.06  
16          0.02  0.35  0.26  0.61  0.16  0.51  0.79  0.09  0.17  0.25  0.32  0.09  0.18  0.63  0.06  
17          0.02  0.35  0.26  0.61  0.16  0.51  0.79  0.09  0.17  0.25  0.32  0.09  0.18  0.63  0.06  
18          0.02  0.35  0.26  0.61  0.16  0.51  0.79  0.09  0.17  0.25  0.32  0.09  0.18  0.63  0.06  
19          0.02  0.35  0.26  0.61  0.16  0.51  0.79  0.09  0.17  0.25  0.32  0.09  0.18  0.63  0.06  
20          0.02  0.35  0.26  0.61  0.16  0.51  0.79  0.09  0.17  0.25  0.32  0.09  0.18  0.63  0.06  
21          0.02  0.35  0.26  0.61  0.16  0.51  0.79  0.09  0.17  0.25  0.32  0.09  0.18  0.63  0.06  
22          0.02  0.35  0.26  0.61  0.16  0.51  0.79  0.09  0.17  0.25  0.32  0.09  0.18  0.63  0.06  
23          0.02  0.35  0.26  0.61  0.16  0.51  0.79  0.09  0.17  0.25  0.32  0.09  0.18  0.63  0.06  
24          0.02  0.35  0.26  0.61  0.16  0.51  0.79  0.09  0.17  0.25  0.32  0.09  0.18  0.63  0.06  
25          0.02  0.34  0.24  0.58  0.15  0.49  0.75  0.09  0.16  0.24  0.30  0.09  0.17  0.59  0.06  
26          0.02  0.34  0.24  0.58  0.15  0.49  0.75  0.09  0.16  0.24  0.30  0.09  0.17  0.59  0.06  
27          0.02  0.34  0.24  0.58  0.15  0.49  0.75  0.09  0.16  0.24  0.30  0.09  0.17  0.59  0.06  
28          0.02  0.34  0.24  0.58  0.15  0.49  0.75  0.09  0.16  0.24  0.30  0.09  0.17  0.59  0.06  
29          0.02  0.34  0.24  0.58  0.15  0.49  0.75  0.09  0.16  0.24  0.30  0.09  0.17  0.59  0.06  
30          0.02  0.34  0.24  0.58  0.15  0.49  0.75  0.09  0.16  0.24  0.30  0.09  0.17  0.59  0.06  
31          0.02  0.34  0.24  0.58  0.15  0.49  0.75  0.09  0.16  0.24  0.30  0.09  0.17  0.59  0.06  
32          0.02  0.34  0.24  0.58  0.15  0.49  0.75  0.09  0.16  0.24  0.30  0.09  0.17  0.59  0.06  
33          0.02  0.34  0.24  0.58  0.15  0.49  0.75  0.09  0.16  0.24  0.30  0.09  0.17  0.59  0.06  
34          0.02  0.35  0.26  0.61  0.16  0.51  0.79  0.09  0.17  0.25  0.32  0.09  0.18  0.63  0.06  
35          0.02  0.35  0.26  0.61  0.16  0.51  0.79  0.09  0.17  0.25  0.32  0.09  0.18  0.63  0.06  
36          0.02  0.35  0.26  0.61  0.16  0.51  0.79  0.09  0.17  0.25  0.32  0.09  0.18  0.63  0.06  
37          0.02  0.35  0.26  0.61  0.16  0.51  0.79  0.09  0.17  0.25  0.32  0.09  0.18  0.63  0.06  
38          0.02  0.35  0.26  0.61  0.16  0.51  0.79  0.09  0.17  0.25  0.32  0.09  0.18  0.63  0.06  
39          0.02  0.35  0.26  0.61  0.16  0.51  0.79  0.09  0.17  0.25  0.32  0.09  0.18  0.63  0.06  
40          0.02  0.35  0.26  0.61  0.16  0.51  0.79  0.09  0.17  0.25  0.32  0.09  0.18  0.63  0.06  
41          0.02  0.35  0.26  0.61  0.16  0.51  0.79  0.09  0.17  0.25  0.32  0.09  0.18  0.63  0.06  
42          0.02  0.35  0.26  0.61  0.16  0.51  0.79  0.09  0.17  0.25  0.32  0.09  0.18  0.63  0.06  
43          0.02  0.35  0.26  0.61  0.16  0.51  0.79  0.09  0.17  0.25  0.32  0.09  0.18  0.63  0.06  
44          0.02  0.35  0.26  0.61  0.16  0.51  0.79  0.09  0.17  0.25  0.32  0.09  0.18  0.63  0.06  
45          0.02  0.35  0.26  0.61  0.16  0.51  0.79  0.09  0.17  0.25  0.32  0.09  0.18  0.63  0.06  
; # downloads resource k can do at front f in time t if starting or ending flight

param W: 
	F1        F2        F3        :=
1	536.56    268.28    268.28    
2	2146.22   1073.11   1073.11   
3	2146.22   1073.11   1073.11   
4	2146.22   1073.11   1073.11   
5	2146.22   1073.11   1073.11   
6	2146.22   1073.11   1073.11   
7	2146.22   1073.11   1073.11   
8	2146.22   1073.11   1073.11   
9	2146.22   1073.11   1073.11   
10	2146.22   1073.11   1073.11   
11	2146.22   1073.11   1073.11   
12	2146.22   1073.11   1073.11   
13	2146.22   1073.11   1073.11   
14	2146.22   1073.11   1073.11   
15	2146.22   1073.11   1073.11   
16	2146.22   1073.11   1073.11   
17	2146.22   1073.11   1073.11   
18	2146.22   1073.11   1073.11   
19	953.88    476.94    476.94    
20	953.88    476.94    476.94    
21	953.88    476.94    476.94    
22	953.88    476.94    476.94    
23	953.88    476.94    476.94    
24	953.88    476.94    476.94    
25	953.88    476.94    476.94    
26	953.88    476.94    476.94    
27	953.88    476.94    476.94    
28	953.88    476.94    476.94    
29	953.88    476.94    476.94    
30	953.88    476.94    476.94    
31	953.88    476.94    476.94    
32	953.88    476.94    476.94    
33	953.88    476.94    476.94    
34	953.88    476.94    476.94    
35	953.88    476.94    476.94    
36	953.88    476.94    476.94    
37	953.88    476.94    476.94    
38	953.88    476.94    476.94    
39	953.88    476.94    476.94    
40	953.88    476.94    476.94    
41	953.88    476.94    476.94    
42	953.88    476.94    476.94    
43	953.88    476.94    476.94    
44	953.88    476.94    476.94    
45	238.47    119.23    119.23    
; # water needed at front f in time slot t

param M := 100000000; 

param a1:= 10000000;

param a2:= 100;

param a3:= 0.0001;
